$comment
Magnesium diradical on an acetylen bridge Mg-CC-Mg.

Geometry (similar to): J. Phys. Chem. Lett. 2020, 11, 4, 1297--1304

molecule: charge = +2, multiplicity = 1
$end

$molecule
2 1
Mg    0.0000000    0.0000000   -2.7336438
 C    0.0000000    0.0000000   -0.6242924
 C    0.0000000    0.0000000    0.6242924
Mg    0.0000000    0.0000000    2.7336438
$end

$rem
  method = eom-ccsd
  dea_singlets = [1, 0, 0, 0, 0, 0, 1, 1]
  dea_triplets = [0, 0, 0, 0, 0, 1, 1, 1]
  basis = 6-31G*
! transition properties
  cc_trans_prop = 2
$end
